NAME : STSP_50-1over3.2.2.789.tour
COMMENT : Length = 789
COMMENT : Found by LKH-3 [Keld Helsgaun]
TYPE : TOUR
DIMENSION : 16
TOUR_SECTION
19
26
23
13
2
10
50
40
12
1
3
31
38
21
15
4
28
45
47
9
20
39
49
39
43
32
25
18
41
44
24
-1
EOF
